W=5;
H=5;

MAX_TIME=W*H;
MAX_TRACKS=11;

TARGET=(1,5);

TRAINS=[(5,2,LEFT),(3,1,TOP)];
DECOYS=[(4,1,TOP)];

INIT_POS=[
(1,4,STRAIGHT_RL),
(1,5,STRAIGHT_RL),
(2,2,ESWITCH_T_D_L),
(3,1,STRAIGHT_TD),
(3,4,ESWITCH_T_D_L),
(4,1,STRAIGHT_TD),
(5,1,CORNER_TR),
(5,2,STRAIGHT_RL),
(5,4,STRAIGHT_RL),
];
TUNNEL_PAIRS=[];

GATES=[
(1,4,1,false),
];
ACTIVATIONS=[
(5,4,1),
];

DSWITCHES=[];
STATIONS=[];
